p cnf 315 201
-9 4 37 210 -10 3 5 7 11 12 67 68 71 72 77 78 79 80 82 84 92 93 94 95 96 99 121 122 123 129 130 131 132 135 136 137 138 139 140 141 142 143 144 145 147 148 149 150 151 152 158 159 160 161 163 166 167 176 177 180 185 186 188 192 193 209 211 213 214 215 216 217 218 221 222 223 224 225 226 227 235 236 237 238 239 240 241 242 243 244 245 246 248 249 251 252 255 259 269 270 271 273 275 276 277 278 279 281 283 285 -289 -297 -298 -299 0 
-10 3 5 7 11 12 67 68 71 72 77 78 79 80 82 84 92 93 94 95 96 99 121 122 123 129 130 131 132 135 136 137 138 139 140 141 142 143 144 145 147 148 149 150 151 152 158 159 160 161 163 166 167 176 177 180 185 186 188 192 193 209 211 213 214 215 216 217 218 221 222 223 224 225 226 227 235 236 237 238 239 240 241 242 243 244 245 246 248 249 251 252 255 259 269 270 271 273 275 276 277 278 279 281 283 286 -289 -297 -298 -299 0 
-11 3 5 7 10 12 67 68 71 72 77 78 79 80 82 84 92 93 94 95 96 99 121 122 123 129 130 131 132 135 136 137 138 139 140 141 142 143 144 145 147 148 149 150 151 152 158 159 160 161 163 166 167 176 177 180 185 186 188 192 193 209 211 213 214 215 216 217 218 221 222 223 224 225 226 227 235 236 237 238 239 240 241 242 243 244 245 246 248 249 251 252 255 259 269 270 271 273 275 276 277 278 279 281 283 287 0 
-12 3 5 7 10 11 67 68 71 72 77 78 79 80 82 84 92 93 94 95 96 99 121 122 123 129 130 131 132 135 136 137 138 139 140 141 142 143 144 145 147 148 149 150 151 152 158 159 160 161 163 166 167 176 177 180 185 186 188 192 193 209 211 213 214 215 216 217 218 221 222 223 224 225 226 227 235 236 237 238 239 240 241 242 243 244 245 246 248 249 251 252 255 259 269 270 271 273 275 276 277 278 279 281 283 286 -289 -297 -298 -299 0 
-13 1 -11 3 5 7 10 12 67 68 71 72 77 78 79 80 82 84 92 93 94 95 96 99 121 122 123 129 130 131 132 135 136 137 138 139 140 141 142 143 144 145 147 148 149 150 151 152 158 159 160 161 163 166 167 176 177 180 185 186 188 192 193 209 211 213 214 215 216 217 218 221 222 223 224 225 226 227 235 236 237 238 239 240 241 242 243 244 245 246 248 249 251 252 255 259 269 270 271 273 275 276 277 278 279 281 283 288 0 
-14 50 87 -12 3 5 7 10 11 67 68 71 72 77 78 79 80 82 84 92 93 94 95 96 99 121 122 123 129 130 131 132 135 136 137 138 139 140 141 142 143 144 145 147 148 149 150 151 152 158 159 160 161 163 166 167 176 177 180 185 186 188 192 193 209 211 213 214 215 216 217 218 221 222 223 224 225 226 227 235 236 237 238 239 240 241 242 243 244 245 246 248 249 251 252 255 259 269 270 271 273 275 276 277 278 279 281 283 285 -289 -297 -298 -299 0 
-15 -16 126 -17 103 107 -18 54 289 -297 -298 -299 0 
-19 289 -297 -298 -299 0 
-20 -21 29 178 179 191 207 208 262 289 -297 -298 -299 0 
-22 289 -297 -298 -299 0 
-23 289 -297 -298 -299 0 
-24 153 201 289 -297 -298 -299 0 
-25 289 -297 -298 -299 0 
-26 -27 104 125 195 289 -297 -298 -299 0 
-28 60 -29 21 178 179 191 207 208 262 289 -297 -298 -299 0 
-30 101 109 205 -31 289 -297 -298 -299 0 
-32 172 174 264 289 -297 -298 -299 0 
-30 101 109 205 -13 1 289 -297 -298 -299 0 
-33 106 194 289 -297 -298 -299 0 
-34 289 -297 -298 -299 0 
-35 289 -297 -298 -299 0 
-28 60 -33 106 194 289 -297 -298 -299 0 
-36 289 -297 -298 -299 0 
-37 4 9 210 290 0 
-38 55 114 173 199 289 -297 -298 -299 0 
-39 89 -40 233 291 -289 -297 -298 -299 -65 0 
-1 13 -41 -42 53 155 156 169 170 232 234 266 291 -289 -297 -298 -299 -65 0 
-43 115 -44 69 75 116 124 134 146 272 274 289 -297 -298 -299 0 
-45 48 289 -297 -298 -299 0 
-8 74 128 289 -297 -298 -299 0 
-30 101 109 205 289 -297 -298 -299 0 
-46 289 -297 -298 -299 0 
-9 4 37 210 -47 62 120 181 268 289 -297 -298 -299 0 
-48 45 289 -297 -298 -299 0 
-49 289 -297 -298 -299 0 
-30 101 109 205 -50 14 87 -1 13 289 -297 -298 -299 0 
-51 -52 198 -53 42 155 156 169 170 232 234 266 -54 18 289 -297 -298 -299 0 
-55 38 114 173 199 289 -297 -298 -299 0 
-56 289 -297 -298 -299 0 
-57 -58 2 59 61 73 85 97 110 119 127 133 175 206 -34 289 -297 -298 -299 0 
-59 2 58 61 73 85 97 110 119 127 133 175 206 -25 -8 74 128 289 -297 -298 -299 0 
-60 28 -30 101 109 205 289 -297 -298 -299 0 
-61 2 58 59 73 85 97 110 119 127 133 175 206 -54 18 -8 74 128 289 -297 -298 -299 0 
-62 47 120 181 268 289 -297 -298 -299 0 
-63 108 162 164 165 189 190 219 220 250 -1 13 289 -297 -298 -299 0 
-16 126 -30 101 109 205 289 -297 -298 -299 0 
-20 -64 100 289 -297 -298 -299 0 
-65 -8 74 128 292 -47 -62 -120 -181 -268 -289 -297 -298 -299 0 
-62 47 120 181 268 -66 70 86 113 289 -297 -298 -299 0 
-67 3 5 7 10 11 12 68 71 72 77 78 79 80 82 84 92 93 94 95 96 99 121 122 123 129 130 131 132 135 136 137 138 139 140 141 142 143 144 145 147 148 149 150 151 152 158 159 160 161 163 166 167 176 177 180 185 186 188 192 193 209 211 213 214 215 216 217 218 221 222 223 224 225 226 227 235 236 237 238 239 240 241 242 243 244 245 246 248 249 251 252 255 259 269 270 271 273 275 276 277 278 279 281 283 293 -289 -297 -298 -299 0 
-71 3 5 7 10 11 12 67 68 72 77 78 79 80 82 84 92 93 94 95 96 99 121 122 123 129 130 131 132 135 136 137 138 139 140 141 142 143 144 145 147 148 149 150 151 152 158 159 160 161 163 166 167 176 177 180 185 186 188 192 193 209 211 213 214 215 216 217 218 221 222 223 224 225 226 227 235 236 237 238 239 240 241 242 243 244 245 246 248 249 251 252 255 259 269 270 271 273 275 276 277 278 279 281 283 294 0 
-71 3 5 7 10 11 12 67 68 72 77 78 79 80 82 84 92 93 94 95 96 99 121 122 123 129 130 131 132 135 136 137 138 139 140 141 142 143 144 145 147 148 149 150 151 152 158 159 160 161 163 166 167 176 177 180 185 186 188 192 193 209 211 213 214 215 216 217 218 221 222 223 224 225 226 227 235 236 237 238 239 240 241 242 243 244 245 246 248 249 251 252 255 259 269 270 271 273 275 276 277 278 279 281 283 295 0 
-72 3 5 7 10 11 12 67 68 71 77 78 79 80 82 84 92 93 94 95 96 99 121 122 123 129 130 131 132 135 136 137 138 139 140 141 142 143 144 145 147 148 149 150 151 152 158 159 160 161 163 166 167 176 177 180 185 186 188 192 193 209 211 213 214 215 216 217 218 221 222 223 224 225 226 227 235 236 237 238 239 240 241 242 243 244 245 246 248 249 251 252 255 259 269 270 271 273 275 276 277 278 279 281 283 296 0 
-35 -8 74 128 289 -297 -298 -299 0 
-85 2 58 59 61 73 97 110 119 127 133 175 206 -34 -8 74 128 289 -297 -298 -299 0 
-34 -8 74 128 289 -297 -298 -299 0 
-86 66 70 113 289 -297 -298 -299 0 
-31 297 -289 -298 -299 0 
-54 18 -87 14 50 297 -289 -298 -299 0 
-88 204 -87 14 50 297 -289 -298 -299 0 
-89 39 292 -47 -62 -120 -181 -268 -289 -297 -298 -299 0 
-90 297 -289 -298 -299 0 
-91 157 292 -47 -62 -120 -181 -268 -289 -297 -298 -299 0 
-81 297 -289 -298 -299 0 
-99 3 5 7 10 11 12 67 68 71 72 77 78 79 80 82 84 92 93 94 95 96 121 122 123 129 130 131 132 135 136 137 138 139 140 141 142 143 144 145 147 148 149 150 151 152 158 159 160 161 163 166 167 176 177 180 185 186 188 192 193 209 211 213 214 215 216 217 218 221 222 223 224 225 226 227 235 236 237 238 239 240 241 242 243 244 245 246 248 249 251 252 255 259 269 270 271 273 275 276 277 278 279 281 283 293 -289 -297 -298 -299 0 
-100 64 289 -297 -298 -299 0 
-101 30 109 205 -31 298 -289 -297 -299 0 
-44 69 75 116 124 134 146 272 274 -55 38 114 173 199 289 -297 -298 -299 0 
-29 21 178 179 191 207 208 262 289 -297 -298 -299 0 
-62 47 120 181 268 -61 2 58 59 73 85 97 110 119 127 133 175 206 289 -297 -298 -299 0 
-102 -50 14 87 291 -289 -297 -298 -299 -65 0 
-103 17 107 289 -297 -298 -299 0 
-1 13 -104 27 125 195 -63 108 162 164 165 189 190 219 220 250 289 -297 -298 -299 0 
-62 47 120 181 268 -58 2 59 61 73 85 97 110 119 127 133 175 206 289 -297 -298 -299 0 
-44 69 75 116 124 134 146 272 274 289 -297 -298 -299 0 
-105 289 -297 -298 -299 0 
-106 33 194 -16 126 289 -297 -298 -299 0 
-1 13 -16 126 289 -297 -298 -299 0 
-107 17 103 289 -297 -298 -299 0 
-1 13 -62 47 120 181 268 -108 63 162 164 165 189 190 219 220 250 -60 28 289 -297 -298 -299 0 
-109 30 101 205 289 -297 -298 -299 0 
-41 -60 28 289 -297 -298 -299 0 
-110 2 58 59 61 73 85 97 119 127 133 175 206 289 -297 -298 -299 0 
-52 198 -38 55 114 173 199 289 -297 -298 -299 0 
-52 198 -60 28 289 -297 -298 -299 0 
-111 112 299 -289 -297 -298 0 
-112 111 289 -297 -298 -299 0 
-105 -113 66 70 86 289 -297 -298 -299 0 
-114 38 55 173 199 -115 43 289 -297 -298 -299 0 
-62 47 120 181 268 -59 2 58 61 73 85 97 110 119 127 133 175 206 289 -297 -298 -299 0 
-116 44 69 75 124 134 146 272 274 289 -297 -298 -299 0 
-117 258 261 263 -64 100 -36 289 -297 -298 -299 0 
-54 18 -36 289 -297 -298 -299 0 
-69 44 75 116 124 134 146 272 274 -74 8 128 289 -297 -298 -299 0 
-25 -36 289 -297 -298 -299 0 
-118 -36 289 -297 -298 -299 0 
-119 2 58 59 61 73 85 97 110 127 133 175 206 -36 289 -297 -298 -299 0 
-123 3 5 7 10 11 12 67 68 71 72 77 78 79 80 82 84 92 93 94 95 96 99 121 122 129 130 131 132 135 136 137 138 139 140 141 142 143 144 145 147 148 149 150 151 152 158 159 160 161 163 166 167 176 177 180 185 186 188 192 193 209 211 213 214 215 216 217 218 221 222 223 224 225 226 227 235 236 237 238 239 240 241 242 243 244 245 246 248 249 251 252 255 259 269 270 271 273 275 276 277 278 279 281 283 300 -289 -297 -298 -299 0 
-123 3 5 7 10 11 12 67 68 71 72 77 78 79 80 82 84 92 93 94 95 96 99 121 122 129 130 131 132 135 136 137 138 139 140 141 142 143 144 145 147 148 149 150 151 152 158 159 160 161 163 166 167 176 177 180 185 186 188 192 193 209 211 213 214 215 216 217 218 221 222 223 224 225 226 227 235 236 237 238 239 240 241 242 243 244 245 246 248 249 251 252 255 259 269 270 271 273 275 276 277 278 279 281 283 301 -289 -297 -298 -299 0 
-1 13 301 -289 -297 -298 -299 0 
-16 126 289 -297 -298 -299 0 
-124 44 69 75 116 134 146 272 274 289 -297 -298 -299 0 
-125 27 104 195 289 -297 -298 -299 0 
-54 18 -8 74 128 289 -297 -298 -299 0 
-52 198 289 -297 -298 -299 0 
-25 -54 18 -8 74 128 289 -297 -298 -299 0 
-126 16 -8 74 128 289 -297 -298 -299 0 
-153 24 201 -154 289 -297 -298 -299 0 
-118 -155 42 53 156 169 170 232 234 266 289 -297 -298 -299 0 
-87 14 50 -156 42 53 155 169 170 232 234 266 289 -297 -298 -299 0 
-30 101 109 205 -157 91 289 -297 -298 -299 0 
-74 8 128 289 -297 -298 -299 0 
-8 74 128 -168 289 -297 -298 -299 0 
-126 16 289 -297 -298 -299 0 
-1 13 -100 64 289 -297 -298 -299 0 
-53 42 155 156 169 170 232 234 266 289 -297 -298 -299 0 
-169 42 53 155 156 170 232 234 266 289 -297 -298 -299 0 
-54 18 289 -297 -298 -299 0 
-59 2 58 61 73 85 97 110 119 127 133 175 206 289 -297 -298 -299 0 
-170 42 53 155 156 169 232 234 266 289 -297 -298 -299 0 
-87 14 50 289 -297 -298 -299 0 
-171 -74 8 128 289 -297 -298 -299 0 
-172 32 174 264 289 -297 -298 -299 0 
-173 38 55 114 199 289 -297 -298 -299 0 
-174 32 172 264 -87 14 50 289 -297 -298 -299 0 
-8 74 128 299 -289 -297 -298 0 
-118 -8 74 128 299 -289 -297 -298 0 
-180 3 5 7 10 11 12 67 68 71 72 77 78 79 80 82 84 92 93 94 95 96 99 121 122 123 129 130 131 132 135 136 137 138 139 140 141 142 143 144 145 147 148 149 150 151 152 158 159 160 161 163 166 167 176 177 185 186 188 192 193 209 211 213 214 215 216 217 218 221 222 223 224 225 226 227 235 236 237 238 239 240 241 242 243 244 245 246 248 249 251 252 255 259 269 270 271 273 275 276 277 278 279 281 283 -8 74 128 296 0 
-181 47 62 120 268 -182 83 285 -289 -297 -298 -299 0 
-14 50 87 -6 302 -289 -297 -298 -299 0 
-81 -13 1 -182 83 286 -289 -297 -298 -299 0 
-14 50 87 -182 83 303 -289 -297 -298 -299 0 
-50 14 87 289 -297 -298 -299 0 
-194 33 106 289 -297 -298 -299 0 
-1 13 -17 103 107 289 -297 -298 -299 0 
-195 27 104 125 299 -289 -297 -298 0 
-62 47 120 181 268 -8 74 128 289 -297 -298 -299 0 
-196 -86 66 70 113 298 -289 -297 -299 0 
-1 13 -30 101 109 205 289 -297 -298 -299 0 
-60 28 289 -297 -298 -299 0 
-30 101 109 205 -74 8 128 289 -297 -298 -299 0 
-54 18 -74 8 128 289 -297 -298 -299 0 
-197 289 -297 -298 -299 0 
-1 13 -198 52 -199 38 55 114 173 -200 289 -297 -298 -299 0 
-30 101 109 205 -81 289 -297 -298 -299 0 
-20 -41 -60 28 289 -297 -298 -299 0 
-201 24 153 289 -297 -298 -299 0 
-202 230 260 291 -289 -297 -298 -299 -65 0 
-203 229 -204 88 -205 30 101 109 291 -289 -297 -298 -299 -65 0 
-30 101 109 205 -61 2 58 59 73 85 97 110 119 127 133 175 206 289 -297 -298 -299 0 
-1 13 -62 47 120 181 268 -59 2 58 61 73 85 97 110 119 127 133 175 206 289 -297 -298 -299 0 
-62 47 120 181 268 -206 2 58 59 61 73 85 97 110 119 127 133 175 -60 28 289 -297 -298 -299 0 
-120 47 62 181 268 -203 229 291 -289 -297 -298 -299 -65 0 
-106 33 194 -124 44 69 75 116 134 146 272 274 289 -297 -298 -299 0 
-206 2 58 59 61 73 85 97 110 119 127 133 175 -38 55 114 173 199 289 -297 -298 -299 0 
-207 21 29 178 179 191 208 262 304 0 
-208 21 29 178 179 191 207 262 305 0 
-209 3 5 7 10 11 12 67 68 71 72 77 78 79 80 82 84 92 93 94 95 96 99 121 122 123 129 130 131 132 135 136 137 138 139 140 141 142 143 144 145 147 148 149 150 151 152 158 159 160 161 163 166 167 176 177 180 185 186 188 192 193 211 213 214 215 216 217 218 221 222 223 224 225 226 227 235 236 237 238 239 240 241 242 243 244 245 246 248 249 251 252 255 259 269 270 271 273 275 276 277 278 279 281 283 305 0 
-10 3 5 7 11 12 67 68 71 72 77 78 79 80 82 84 92 93 94 95 96 99 121 122 123 129 130 131 132 135 136 137 138 139 140 141 142 143 144 145 147 148 149 150 151 152 158 159 160 161 163 166 167 176 177 180 185 186 188 192 193 209 211 213 214 215 216 217 218 221 222 223 224 225 226 227 235 236 237 238 239 240 241 242 243 244 245 246 248 249 251 252 255 259 269 270 271 273 275 276 277 278 279 281 283 303 -289 -297 -298 -299 0 
-12 3 5 7 10 11 67 68 71 72 77 78 79 80 82 84 92 93 94 95 96 99 121 122 123 129 130 131 132 135 136 137 138 139 140 141 142 143 144 145 147 148 149 150 151 152 158 159 160 161 163 166 167 176 177 180 185 186 188 192 193 209 211 213 214 215 216 217 218 221 222 223 224 225 226 227 235 236 237 238 239 240 241 242 243 244 245 246 248 249 251 252 255 259 269 270 271 273 275 276 277 278 279 281 283 303 -289 -297 -298 -299 0 
-10 3 5 7 11 12 67 68 71 72 77 78 79 80 82 84 92 93 94 95 96 99 121 122 123 129 130 131 132 135 136 137 138 139 140 141 142 143 144 145 147 148 149 150 151 152 158 159 160 161 163 166 167 176 177 180 185 186 188 192 193 209 211 213 214 215 216 217 218 221 222 223 224 225 226 227 235 236 237 238 239 240 241 242 243 244 245 246 248 249 251 252 255 259 269 270 271 273 275 276 277 278 279 281 283 306 -289 -297 -298 -299 0 
-12 3 5 7 10 11 67 68 71 72 77 78 79 80 82 84 92 93 94 95 96 99 121 122 123 129 130 131 132 135 136 137 138 139 140 141 142 143 144 145 147 148 149 150 151 152 158 159 160 161 163 166 167 176 177 180 185 186 188 192 193 209 211 213 214 215 216 217 218 221 222 223 224 225 226 227 235 236 237 238 239 240 241 242 243 244 245 246 248 249 251 252 255 259 269 270 271 273 275 276 277 278 279 281 283 306 -289 -297 -298 -299 0 
-11 3 5 7 10 12 67 68 71 72 77 78 79 80 82 84 92 93 94 95 96 99 121 122 123 129 130 131 132 135 136 137 138 139 140 141 142 143 144 145 147 148 149 150 151 152 158 159 160 161 163 166 167 176 177 180 185 186 188 192 193 209 211 213 214 215 216 217 218 221 222 223 224 225 226 227 235 236 237 238 239 240 241 242 243 244 245 246 248 249 251 252 255 259 269 270 271 273 275 276 277 278 279 281 283 307 0 
-11 3 5 7 10 12 67 68 71 72 77 78 79 80 82 84 92 93 94 95 96 99 121 122 123 129 130 131 132 135 136 137 138 139 140 141 142 143 144 145 147 148 149 150 151 152 158 159 160 161 163 166 167 176 177 180 185 186 188 192 193 209 211 213 214 215 216 217 218 221 222 223 224 225 226 227 235 236 237 238 239 240 241 242 243 244 245 246 248 249 251 252 255 259 269 270 271 273 275 276 277 278 279 281 283 308 0 
-11 3 5 7 10 12 67 68 71 72 77 78 79 80 82 84 92 93 94 95 96 99 121 122 123 129 130 131 132 135 136 137 138 139 140 141 142 143 144 145 147 148 149 150 151 152 158 159 160 161 163 166 167 176 177 180 185 186 188 192 193 209 211 213 214 215 216 217 218 221 222 223 224 225 226 227 235 236 237 238 239 240 241 242 243 244 245 246 248 249 251 252 255 259 269 270 271 273 275 276 277 278 279 281 283 309 0 
-12 3 5 7 10 11 67 68 71 72 77 78 79 80 82 84 92 93 94 95 96 99 121 122 123 129 130 131 132 135 136 137 138 139 140 141 142 143 144 145 147 148 149 150 151 152 158 159 160 161 163 166 167 176 177 180 185 186 188 192 193 209 211 213 214 215 216 217 218 221 222 223 224 225 226 227 235 236 237 238 239 240 241 242 243 244 245 246 248 249 251 252 255 259 269 270 271 273 275 276 277 278 279 281 283 302 -289 -297 -298 -299 0 
-10 3 5 7 11 12 67 68 71 72 77 78 79 80 82 84 92 93 94 95 96 99 121 122 123 129 130 131 132 135 136 137 138 139 140 141 142 143 144 145 147 148 149 150 151 152 158 159 160 161 163 166 167 176 177 180 185 186 188 192 193 209 211 213 214 215 216 217 218 221 222 223 224 225 226 227 235 236 237 238 239 240 241 242 243 244 245 246 248 249 251 252 255 259 269 270 271 273 275 276 277 278 279 281 283 302 -289 -297 -298 -299 0 
-224 3 5 7 10 11 12 67 68 71 72 77 78 79 80 82 84 92 93 94 95 96 99 121 122 123 129 130 131 132 135 136 137 138 139 140 141 142 143 144 145 147 148 149 150 151 152 158 159 160 161 163 166 167 176 177 180 185 186 188 192 193 209 211 213 214 215 216 217 218 221 222 223 225 226 227 235 236 237 238 239 240 241 242 243 244 245 246 248 249 251 252 255 259 269 270 271 273 275 276 277 278 279 281 283 310 -289 -297 -298 -299 0 
-225 3 5 7 10 11 12 67 68 71 72 77 78 79 80 82 84 92 93 94 95 96 99 121 122 123 129 130 131 132 135 136 137 138 139 140 141 142 143 144 145 147 148 149 150 151 152 158 159 160 161 163 166 167 176 177 180 185 186 188 192 193 209 211 213 214 215 216 217 218 221 222 223 224 226 227 235 236 237 238 239 240 241 242 243 244 245 246 248 249 251 252 255 259 269 270 271 273 275 276 277 278 279 281 283 311 -289 -297 -298 -299 0 
-226 3 5 7 10 11 12 67 68 71 72 77 78 79 80 82 84 92 93 94 95 96 99 121 122 123 129 130 131 132 135 136 137 138 139 140 141 142 143 144 145 147 148 149 150 151 152 158 159 160 161 163 166 167 176 177 180 185 186 188 192 193 209 211 213 214 215 216 217 218 221 222 223 224 225 227 235 236 237 238 239 240 241 242 243 244 245 246 248 249 251 252 255 259 269 270 271 273 275 276 277 278 279 281 283 312 -289 -297 -298 -299 0 
-227 3 5 7 10 11 12 67 68 71 72 77 78 79 80 82 84 92 93 94 95 96 99 121 122 123 129 130 131 132 135 136 137 138 139 140 141 142 143 144 145 147 148 149 150 151 152 158 159 160 161 163 166 167 176 177 180 185 186 188 192 193 209 211 213 214 215 216 217 218 221 222 223 224 225 226 235 236 237 238 239 240 241 242 243 244 245 246 248 249 251 252 255 259 269 270 271 273 275 276 277 278 279 281 283 -8 74 128 313 -289 -297 -298 -299 0 
-26 -17 103 107 289 -297 -298 -299 0 
-118 -126 16 289 -297 -298 -299 0 
-62 47 120 181 268 -63 108 162 164 165 189 190 219 220 250 289 -297 -298 -299 0 
-196 -229 203 297 -289 -298 -299 0 
-230 202 260 -231 -232 42 53 155 156 169 170 234 266 -233 40 292 -47 -62 -120 -181 -268 -289 -297 -298 -299 0 
-229 203 292 -47 -62 -120 -181 -268 -289 -297 -298 -299 0 
-205 30 101 109 297 -289 -298 -299 0 
-234 42 53 155 156 169 170 232 266 314 0 
-62 47 120 181 268 -74 8 128 -257 289 -297 -298 -299 0 
-60 28 -74 8 128 289 -297 -298 -299 0 
-260 202 230 -205 30 101 109 297 -289 -298 -299 0 
-39 89 291 -289 -297 -298 -299 -65 0 
-74 8 128 -263 117 258 261 289 -297 -298 -299 0 
-1 13 -264 32 172 174 289 -297 -298 -299 0 
-265 289 -297 -298 -299 0 
-106 33 194 299 -289 -297 -298 0 
-266 42 53 155 156 169 170 232 234 289 -297 -298 -299 0 
-24 153 201 -128 8 74 289 -297 -298 -299 0 
-44 69 75 116 124 134 146 272 274 -113 66 70 86 289 -297 -298 -299 0 
-196 289 -297 -298 -299 0 
-62 47 120 181 268 -100 64 289 -297 -298 -299 0 
-267 289 -297 -298 -299 0 
-274 44 69 75 116 124 134 146 272 -275 3 5 7 10 11 12 67 68 71 72 77 78 79 80 82 84 92 93 94 95 96 99 121 122 123 129 130 131 132 135 136 137 138 139 140 141 142 143 144 145 147 148 149 150 151 152 158 159 160 161 163 166 167 176 177 180 185 186 188 192 193 209 211 213 214 215 216 217 218 221 222 223 224 225 226 227 235 236 237 238 239 240 241 242 243 244 245 246 248 249 251 252 255 259 269 270 271 273 276 277 278 279 281 283 286 -289 -297 -298 -299 0 
-275 3 5 7 10 11 12 67 68 71 72 77 78 79 80 82 84 92 93 94 95 96 99 121 122 123 129 130 131 132 135 136 137 138 139 140 141 142 143 144 145 147 148 149 150 151 152 158 159 160 161 163 166 167 176 177 180 185 186 188 192 193 209 211 213 214 215 216 217 218 221 222 223 224 225 226 227 235 236 237 238 239 240 241 242 243 244 245 246 248 249 251 252 255 259 269 270 271 273 276 277 278 279 281 283 285 -289 -297 -298 -299 0 
-275 3 5 7 10 11 12 67 68 71 72 77 78 79 80 82 84 92 93 94 95 96 99 121 122 123 129 130 131 132 135 136 137 138 139 140 141 142 143 144 145 147 148 149 150 151 152 158 159 160 161 163 166 167 176 177 180 185 186 188 192 193 209 211 213 214 215 216 217 218 221 222 223 224 225 226 227 235 236 237 238 239 240 241 242 243 244 245 246 248 249 251 252 255 259 269 270 271 273 276 277 278 279 281 283 302 -289 -297 -298 -299 0 
-275 3 5 7 10 11 12 67 68 71 72 77 78 79 80 82 84 92 93 94 95 96 99 121 122 123 129 130 131 132 135 136 137 138 139 140 141 142 143 144 145 147 148 149 150 151 152 158 159 160 161 163 166 167 176 177 180 185 186 188 192 193 209 211 213 214 215 216 217 218 221 222 223 224 225 226 227 235 236 237 238 239 240 241 242 243 244 245 246 248 249 251 252 255 259 269 270 271 273 276 277 278 279 281 283 306 -289 -297 -298 -299 0 
-275 3 5 7 10 11 12 67 68 71 72 77 78 79 80 82 84 92 93 94 95 96 99 121 122 123 129 130 131 132 135 136 137 138 139 140 141 142 143 144 145 147 148 149 150 151 152 158 159 160 161 163 166 167 176 177 180 185 186 188 192 193 209 211 213 214 215 216 217 218 221 222 223 224 225 226 227 235 236 237 238 239 240 241 242 243 244 245 246 248 249 251 252 255 259 269 270 271 273 276 277 278 279 281 283 303 -289 -297 -298 -299 0 
-8 74 128 297 -289 -298 -299 0 
-74 8 128 -36 289 -297 -298 -299 0 
-96 3 5 7 10 11 12 67 68 71 72 77 78 79 80 82 84 92 93 94 95 99 121 122 123 129 130 131 132 135 136 137 138 139 140 141 142 143 144 145 147 148 149 150 151 152 158 159 160 161 163 166 167 176 177 180 185 186 188 192 193 209 211 213 214 215 216 217 218 221 222 223 224 225 226 227 235 236 237 238 239 240 241 242 243 244 245 246 248 249 251 252 255 259 269 270 271 273 275 276 277 278 279 281 283 -8 74 128 315 -289 -297 -298 -299 0 
